19 965
535 8 494 8 321 11
519 7 499 7 409 7 251 9 141 18
520 7 441 7 296 7 152 12
525 7 477 7 391 7 243 9 78 11 921 15
520 7 440 7 284 7 103 9 923 13
520 7 479 7 356 7 157 9 9 11 815 15 658 22
535 8 492 8 398 9 279 10 184 14 58 26 897 50
535 8 492 8 398 9 279 10 184 14 58 26 897 50
535 8 492 8 398 9 279 10 184 14 58 26 897 50
528 7 504 7 413 7 254 9 80 11 923 15 769 20
528 7 504 7 413 7 254 9 80 11 923 15 769 20
525 7 479 7 358 7 163 9 10 11 784 18
535 8 494 8 291 10
535 8 494 8 291 10
528 7 482 7 366 7 202 12
525 7 484 7 368 7 123 9 857 11 635 18
525 7 484 7 368 7 123 9 857 11 631 18
520 7 440 7 284 7 88 12
525 7 477 7 390 7 241 9 75 11 912 18
